DIMENSION :24
NODE_COORD_SECTION
1 -55.5236071384531 -86.89311963922873
2 36.68926659192519 -81.14577885317244
3 36.62057072002929 -76.44961880019692
4 -62.85420246382698 -17.027935638032147
5 49.791473452668754 -97.98918592976588
6 -53.108842554238535 92.51416391991333
7 79.61120257518118 -82.19724548537542
8 31.437416110952256 -65.7208805211246
9 64.44714696018124 99.80631077697333
10 -48.81920711875254 98.46421538704334
11 96.64950971292211 -28.073901649977188
12 47.072789500944765 -20.297429196449656
13 74.05769240728998 5.163417003492839
14 -99.53780723134815 -56.51636756012704
15 -1.895045168748723 -45.992070478363644
16 4.394311845682125 26.15158001726512
17 57.0772148510689 28.644162647114854
18 81.50542173242064 11.090302533695294
19 46.55847464549717 69.50735090385948
20 62.75190851760277 29.367627449759738
21 73.8219000848625 37.01198065205506
22 1.5651458701905199 70.02559394880049
23 68.90215268426428 -93.1843065817872
24 -60.375213844249245 -46.63240543057632
EOF
